objective value:                                   -4
t_n_18                                              1 	(obj:-1)
t_n_1674                                            1 	(obj:-1)
t_n_1691                                            1 	(obj:-1)
t_n_1816                                            1 	(obj:-1)
